NAME : d198
COMMENT : Drilling problem (Reinelt)
TYPE : TSP
DIMENSION : 198
EDGE_WEIGHT_TYPE : EUC_2D
NODE_COORD_SECTION
1 0.00000e+00 0.00000e+00
2 5.51200e+02 9.96400e+02
3 6.27400e+02 9.96400e+02
4 7.03600e+02 9.96400e+02
5 7.03600e+02 1.04720e+03
6 6.27400e+02 1.04720e+03
7 5.51200e+02 1.04720e+03
8 8.81400e+02 1.35200e+03
9 9.32200e+02 1.35200e+03
10 9.57600e+02 1.35200e+03
11 9.83000e+02 1.35200e+03
12 1.00840e+03 1.35200e+03
13 1.03380e+03 1.35200e+03
14 1.31320e+03 1.12340e+03
15 1.28780e+03 1.09800e+03
16 1.28780e+03 9.96400e+02
17 1.31320e+03 9.96400e+02
18 1.46560e+03 9.96400e+02
19 1.51640e+03 9.96400e+02
20 1.59260e+03 9.96400e+02
21 1.59260e+03 1.09800e+03
22 1.51640e+03 1.09800e+03
23 1.46560e+03 1.09800e+03
24 1.56720e+03 1.12340e+03
25 1.59260e+03 1.14880e+03
26 1.56720e+03 1.17420e+03
27 1.54180e+03 1.17420e+03
28 1.49100e+03 1.17420e+03
29 1.44020e+03 1.17420e+03
30 1.46560e+03 1.19960e+03
31 1.41480e+03 1.22500e+03
32 1.44020e+03 1.22500e+03
33 1.49100e+03 1.22500e+03
34 1.51640e+03 1.22500e+03
35 1.59260e+03 1.25040e+03
36 1.46560e+03 1.25040e+03
37 1.44020e+03 1.25040e+03
38 1.38940e+03 1.25040e+03
39 1.54180e+03 1.27580e+03
40 1.16080e+03 1.12340e+03
41 1.16080e+03 1.22500e+03
42 1.26240e+03 1.30120e+03
43 1.28780e+03 1.30120e+03
44 1.33860e+03 1.30120e+03
45 1.41480e+03 1.30120e+03
46 1.49100e+03 1.30120e+03
47 1.54180e+03 1.30120e+03
48 1.64340e+03 1.30120e+03
49 1.66880e+03 1.32660e+03
50 1.61800e+03 1.32660e+03
EOF
